linear programming/gurobi/nested L-shape/iter4_main.lp
\ LP format - for model browsing. Use MPS format to capture full model detail.
Minimize
  q_1 + theta_2
Subject To
 R0: 10 q_1 + theta_2 >= -300
 R1: - q_1 + theta_2 >= -375.875
 R2: 8.625 q_1 + theta_2 >= -172.1785714285714
Bounds
 theta_2 >= -600
End
