linear programming/gurobi/nested L-shape/iter4_main.sol
# Objective value = -3.3354846938775506e+02
q_1 2.1163265306122444e+01
theta_2 -3.5471173469387753e+02
